c 
c U(n,d) graph
c graph gen seed     : 81919
c number of vertices : 50
c max number of edges: 1225
c Euclidean distance : 0.200000
c data structure     : sparse
c
c           Graph Stats
c number of vertices  : 50
c nonisolated vertices: 48
c number of edges     : 128
c edge density        : 0.104490
c max degree          : 12
c avg degree          : 5.12
c min degree          : 0
p col 50 128
e 1 36
e 1 30
e 1 22
e 1 20
e 1 15
e 1 10
e 1 9
e 1 2
e 2 47
e 2 31
e 2 30
e 2 25
e 2 22
e 2 20
e 2 15
e 2 10
e 2 9
e 3 38
e 3 8
e 4 50
e 4 49
e 4 43
e 4 42
e 4 39
e 4 38
e 4 34
e 4 17
e 4 13
e 5 47
e 5 30
e 5 28
e 5 25
e 5 22
e 5 21
e 5 20
e 5 15
e 6 44
e 7 41
e 7 40
e 7 27
e 7 23
e 7 18
e 8 38
e 9 48
e 10 47
e 10 31
e 10 30
e 10 25
e 10 22
e 10 20
e 10 16
e 11 29
e 11 26
e 12 42
e 12 39
e 12 24
e 12 17
e 13 50
e 13 49
e 13 38
e 14 45
e 14 43
e 14 39
e 14 34
e 15 46
e 15 36
e 15 30
e 15 25
e 15 22
e 15 20
e 16 47
e 16 31
e 16 24
e 17 43
e 17 42
e 17 39
e 17 34
e 17 24
e 18 41
e 18 37
e 18 27
e 20 47
e 20 46
e 20 36
e 20 31
e 20 30
e 20 25
e 20 22
e 21 35
e 21 28
e 21 25
e 22 47
e 22 36
e 22 31
e 22 30
e 22 25
e 23 40
e 24 43
e 24 39
e 24 34
e 24 31
e 25 47
e 25 36
e 25 30
e 26 29
e 27 41
e 27 37
e 28 35
e 30 47
e 30 31
e 31 47
e 32 44
e 34 43
e 34 42
e 34 39
e 36 46
e 37 41
e 38 49
e 38 45
e 39 49
e 39 43
e 39 42
e 41 45
e 42 50
e 42 49
e 42 43
e 43 49
e 49 50